certificates/rado_a11_c206_N25.cnf
c Rad2 upper bound instance: x1 + 11*x2 - x3 = 206, interval [1,25]
p cnf 25 112
1 4 19 0
-1 -4 -19 0
1 15 20 0
-1 -15 -20 0
2 5 19 0
-2 -5 -19 0
2 16 20 0
-2 -16 -20 0
3 6 19 0
-3 -6 -19 0
3 17 20 0
-3 -17 -20 0
4 7 19 0
-4 -7 -19 0
4 18 20 0
-4 -18 -20 0
5 8 19 0
-5 -8 -19 0
5 19 20 0
-5 -19 -20 0
6 9 19 0
-6 -9 -19 0
6 20 0
-6 -20 0
7 10 19 0
-7 -10 -19 0
7 20 21 0
-7 -20 -21 0
8 11 19 0
-8 -11 -19 0
8 20 22 0
-8 -20 -22 0
1 9 18 0
-1 -9 -18 0
9 12 19 0
-9 -12 -19 0
9 20 23 0
-9 -20 -23 0
2 10 18 0
-2 -10 -18 0
10 13 19 0
-10 -13 -19 0
10 20 24 0
-10 -20 -24 0
3 11 18 0
-3 -11 -18 0
11 14 19 0
-11 -14 -19 0
11 20 25 0
-11 -20 -25 0
4 12 18 0
-4 -12 -18 0
12 15 19 0
-12 -15 -19 0
5 13 18 0
-5 -13 -18 0
13 16 19 0
-13 -16 -19 0
6 14 18 0
-6 -14 -18 0
14 17 19 0
-14 -17 -19 0
7 15 18 0
-7 -15 -18 0
15 18 19 0
-15 -18 -19 0
8 16 18 0
-8 -16 -18 0
16 19 0
-16 -19 0
9 17 18 0
-9 -17 -18 0
17 19 20 0
-17 -19 -20 0
10 18 0
-10 -18 0
18 19 21 0
-18 -19 -21 0
11 18 19 0
-11 -18 -19 0
19 22 0
-19 -22 0
1 17 20 0
-1 -17 -20 0
12 18 20 0
-12 -18 -20 0
19 20 23 0
-19 -20 -23 0
2 17 21 0
-2 -17 -21 0
13 18 21 0
-13 -18 -21 0
19 21 24 0
-19 -21 -24 0
3 17 22 0
-3 -17 -22 0
14 18 22 0
-14 -18 -22 0
19 22 25 0
-19 -22 -25 0
4 17 23 0
-4 -17 -23 0
15 18 23 0
-15 -18 -23 0
5 17 24 0
-5 -17 -24 0
16 18 24 0
-16 -18 -24 0
6 17 25 0
-6 -17 -25 0
17 18 25 0
-17 -18 -25 0
