certificates/rado_a11_c206_N25.drat
19 -24 -25 0
-6 -19 -25 0
-24 -25 0
d 19 -24 -25 0
-19 -20 24 0
-20 -25 0
-25 0
20 24 0
d 10 20 24 0
24 0
-20 0
6 0
11 0
19 0
-16 0
-22 0
-21 0
-3 0
-9 0
-8 0
-14 0
-18 0
2 0
0
